82750524905358832765011,3,1,2,03,2,1,2,015,2,1,2,07,2,1,2,09,9,1,2,09,6,1,2,011,3,1,2,02,6,1,2,02,6,1,2,06,2,1,2,02,7,1,2,014,1,1,2,09,12,1,2,01,5,1,2,015,6,1,2,010,8,1,2,010,13,1,2,01,13,1,2,01,12,1,2,013,5,1,2,015,7,1,2,012,12,1,2,06,6,1,2,011,13,1,2,08,15,1,2,015,13,1,2,04,1,1,2,011,8,1,2,05,10,1,2,01,15,1,2,02,7,1,2,01,14,1,2,03,1,1,2,010,10,1,2,02,7,1,2,07,10,1,2,01,8,1,2,09,9,1,2,05,8,1,2,02,8,1,2,04,1,1,2,011,6,1,2,013,10,1,2,06,8,1,2,06,13,1,2,07,13,1,2,01,8,1,2,09,4,1,2,04,3,1,2,014,11,1,2,0